100
32
16
1
1
17
23
1
17
2
22
1
1
3
16
4
1
17
8
12
4
8
1
8
1
10
8
9
1
2
1
1
17
2
1
18
2
17
2
1
1
1
3
3
3
17
1
4
3
1
1
3
2
1
17
1
1
1
2
1
18
1
1
17
3
1
17
1
3
3
3
1
2
5
1
3
1
2
1
2
3
1
3
2
12
1
1
2
1
6
2
4
1
2
2
5
1
17
9
3
1
1